42
1 0 12
2 0 5
2 1 1
3 0 3
3 1 6
3 2 1
4 0 12
4 1 6
4 2 10
4 3 12
5 0 12
5 1 4
5 2 1
5 3 11
5 4 9
6 0 2
6 1 6
6 2 2
6 3 8
6 4 3
6 5 4
7 0 8
7 1 9
7 2 6
7 3 12
7 4 1
7 5 5
7 6 5
8 0 9
8 1 2
8 2 10
8 3 12
8 4 1
8 5 6
8 6 9
8 7 3
9 0 3
9 1 12
9 2 2
9 3 4
9 4 1
9 5 8
9 6 7
9 7 11
9 8 3
10 0 1
10 1 11
10 2 12
10 3 1
10 4 4
10 5 12
10 6 12
10 7 7
10 8 11
10 9 12
11 0 12
11 1 6
11 2 10
11 3 12
11 4 11
11 5 12
11 6 6
11 7 4
11 8 9
11 9 11
11 10 9
12 0 12
12 1 8
12 2 6
12 3 4
12 4 8
12 5 9
12 6 2
12 7 4
12 8 7
12 9 12
12 10 8
12 11 5
13 0 2
13 1 5
13 2 9
13 3 9
13 4 11
13 5 10
13 6 8
13 7 12
13 8 12
13 9 10
13 10 11
13 11 1
13 12 5
14 0 8
14 1 9
14 2 8
14 3 2
14 4 3
14 5 5
14 6 4
14 7 11
14 8 6
14 9 6
14 10 7
14 11 12
14 12 7
14 13 11
15 0 10
15 1 3
15 2 10
15 3 7
15 4 3
15 5 10
15 6 12
15 7 12
15 8 12
15 9 1
15 10 1
15 11 8
15 12 8
15 13 1
15 14 11
16 0 9
16 1 12
16 2 9
16 3 12
16 4 8
16 5 1
16 6 5
16 7 11
16 8 5
16 9 5
16 10 12
16 11 8
16 12 12
16 13 3
16 14 2
16 15 10
17 0 12
17 1 5
17 2 12
17 3 7
17 4 2
17 5 4
17 6 7
17 7 4
17 8 12
17 9 9
17 10 10
17 11 6
17 12 10
17 13 2
17 14 10
17 15 1
17 16 9
18 0 11
18 1 12
18 2 11
18 3 5
18 4 3
18 5 12
18 6 8
18 7 5
18 8 7
18 9 3
18 10 10
18 11 1
18 12 5
18 13 7
18 14 5
18 15 3
18 16 1
18 17 1
19 0 7
19 1 6
19 2 3
19 3 7
19 4 3
19 5 11
19 6 7
19 7 9
19 8 9
19 9 12
19 10 2
19 11 5
19 12 11
19 13 5
19 14 6
19 15 3
19 16 1
19 17 10
19 18 4
20 0 7
20 1 6
20 2 8
20 3 7
20 4 12
20 5 8
20 6 6
20 7 12
20 8 10
20 9 5
20 10 1
20 11 3
20 12 9
20 13 9
20 14 1
20 15 1
20 16 12
20 17 9
20 18 2
20 19 11
21 0 1
21 1 7
21 2 5
21 3 9
21 4 11
21 5 6
21 6 3
21 7 6
21 8 3
21 9 11
21 10 12
21 11 4
21 12 6
21 13 11
21 14 11
21 15 2
21 16 2
21 17 2
21 18 4
21 19 6
21 20 8
22 0 5
22 1 4
22 2 11
22 3 10
22 4 1
22 5 1
22 6 4
22 7 4
22 8 4
22 9 4
22 10 10
22 11 12
22 12 4
22 13 8
22 14 5
22 15 8
22 16 7
22 17 6
22 18 11
22 19 7
22 20 12
22 21 12
23 0 10
23 1 8
23 2 4
23 3 6
23 4 10
23 5 5
23 6 1
23 7 9
23 8 8
23 9 11
23 10 12
23 11 12
23 12 11
23 13 2
23 14 12
23 15 3
23 16 10
23 17 12
23 18 10
23 19 9
23 20 2
23 21 3
23 22 6
24 0 3
24 1 8
24 2 12
24 3 3
24 4 1
24 5 7
24 6 7
24 7 6
24 8 8
24 9 2
24 10 8
24 11 5
24 12 3
24 13 3
24 14 1
24 15 8
24 16 2
24 17 2
24 18 5
24 19 4
24 20 1
24 21 10
24 22 10
24 23 6
25 0 6
25 1 10
25 2 6
25 3 5
25 4 8
25 5 4
25 6 1
25 7 10
25 8 4
25 9 4
25 10 4
25 11 1
25 12 6
25 13 6
25 14 11
25 15 10
25 16 11
25 17 10
25 18 5
25 19 7
25 20 1
25 21 8
25 22 12
25 23 6
25 24 12
26 0 4
26 1 12
26 2 12
26 3 9
26 4 11
26 5 8
26 6 2
26 7 2
26 8 4
26 9 1
26 10 4
26 11 2
26 12 12
26 13 4
26 14 12
26 15 4
26 16 11
26 17 8
26 18 9
26 19 9
26 20 2
26 21 10
26 22 6
26 23 3
26 24 11
26 25 12
27 0 3
27 1 5
27 2 12
27 3 4
27 4 3
27 5 8
27 6 3
27 7 2
27 8 2
27 9 1
27 10 10
27 11 11
27 12 12
27 13 8
27 14 11
27 15 1
27 16 11
27 17 12
27 18 5
27 19 3
27 20 11
27 21 3
27 22 3
27 23 12
27 24 2
27 25 2
27 26 12
28 0 10
28 1 1
28 2 9
28 3 6
28 4 12
28 5 7
28 6 6
28 7 9
28 8 10
28 9 3
28 10 6
28 11 10
28 12 1
28 13 6
28 14 12
28 15 8
28 16 11
28 17 12
28 18 8
28 19 8
28 20 10
28 21 5
28 22 4
28 23 12
28 24 3
28 25 1
28 26 5
28 27 8
29 0 10
29 1 3
29 2 7
29 3 10
29 4 12
29 5 3
29 6 2
29 7 3
29 8 10
29 9 4
29 10 10
29 11 12
29 12 2
29 13 4
29 14 6
29 15 1
29 16 7
29 17 7
29 18 3
29 19 10
29 20 5
29 21 10
29 22 7
29 23 11
29 24 2
29 25 1
29 26 1
29 27 5
29 28 1
30 0 1
30 1 4
30 2 5
30 3 3
30 4 1
30 5 10
30 6 5
30 7 1
30 8 7
30 9 8
30 10 7
30 11 3
30 12 10
30 13 9
30 14 11
30 15 6
30 16 10
30 17 4
30 18 12
30 19 1
30 20 5
30 21 3
30 22 1
30 23 4
30 24 9
30 25 12
30 26 7
30 27 5
30 28 9
30 29 5
31 0 4
31 1 5
31 2 11
31 3 8
31 4 2
31 5 11
31 6 3
31 7 1
31 8 7
31 9 5
31 10 5
31 11 9
31 12 12
31 13 8
31 14 12
31 15 6
31 16 4
31 17 10
31 18 7
31 19 5
31 20 4
31 21 4
31 22 1
31 23 10
31 24 2
31 25 5
31 26 6
31 27 2
31 28 4
31 29 4
31 30 2
32 0 8
32 1 5
32 2 2
32 3 7
32 4 12
32 5 6
32 6 8
32 7 8
32 8 2
32 9 7
32 10 12
32 11 9
32 12 2
32 13 11
32 14 7
32 15 1
32 16 12
32 17 11
32 18 2
32 19 9
32 20 5
32 21 6
32 22 5
32 23 8
32 24 5
32 25 1
32 26 7
32 27 3
32 28 12
32 29 4
32 30 1
32 31 4
33 0 8
33 1 4
33 2 1
33 3 2
33 4 2
33 5 1
33 6 10
33 7 4
33 8 3
33 9 11
33 10 10
33 11 3
33 12 9
33 13 6
33 14 2
33 15 7
33 16 11
33 17 10
33 18 4
33 19 7
33 20 6
33 21 11
33 22 9
33 23 11
33 24 10
33 25 5
33 26 5
33 27 6
33 28 3
33 29 5
33 30 8
33 31 2
33 32 1
34 0 5
34 1 7
34 2 6
34 3 5
34 4 1
34 5 9
34 6 5
34 7 2
34 8 6
34 9 9
34 10 1
34 11 9
34 12 8
34 13 3
34 14 3
34 15 5
34 16 10
34 17 1
34 18 5
34 19 4
34 20 1
34 21 8
34 22 8
34 23 3
34 24 1
34 25 4
34 26 1
34 27 11
34 28 8
34 29 8
34 30 8
34 31 10
34 32 9
34 33 12
35 0 7
35 1 1
35 2 10
35 3 11
35 4 1
35 5 4
35 6 9
35 7 3
35 8 11
35 9 12
35 10 12
35 11 2
35 12 11
35 13 1
35 14 10
35 15 9
35 16 12
35 17 5
35 18 5
35 19 9
35 20 4
35 21 10
35 22 4
35 23 6
35 24 8
35 25 8
35 26 8
35 27 4
35 28 4
35 29 7
35 30 2
35 31 2
35 32 7
35 33 12
35 34 2
36 0 12
36 1 3
36 2 2
36 3 8
36 4 4
36 5 8
36 6 5
36 7 5
36 8 9
36 9 4
36 10 12
36 11 6
36 12 4
36 13 5
36 14 8
36 15 3
36 16 7
36 17 12
36 18 12
36 19 5
36 20 4
36 21 4
36 22 5
36 23 12
36 24 2
36 25 8
36 26 10
36 27 9
36 28 8
36 29 12
36 30 9
36 31 5
36 32 3
36 33 12
36 34 4
36 35 8
37 0 9
37 1 7
37 2 8
37 3 5
37 4 4
37 5 6
37 6 5
37 7 5
37 8 2
37 9 3
37 10 11
37 11 8
37 12 4
37 13 2
37 14 2
37 15 10
37 16 2
37 17 9
37 18 4
37 19 7
37 20 2
37 21 7
37 22 12
37 23 4
37 24 4
37 25 4
37 26 2
37 27 6
37 28 11
37 29 10
37 30 1
37 31 4
37 32 6
37 33 10
37 34 1
37 35 9
37 36 6
38 0 10
38 1 12
38 2 4
38 3 1
38 4 3
38 5 10
38 6 6
38 7 3
38 8 10
38 9 7
38 10 11
38 11 4
38 12 10
38 13 8
38 14 2
38 15 4
38 16 9
38 17 11
38 18 10
38 19 4
38 20 10
38 21 6
38 22 9
38 23 12
38 24 12
38 25 1
38 26 5
38 27 1
38 28 1
38 29 10
38 30 7
38 31 11
38 32 9
38 33 2
38 34 12
38 35 3
38 36 2
38 37 2
39 0 12
39 1 11
39 2 3
39 3 6
39 4 1
39 5 8
39 6 10
39 7 10
39 8 8
39 9 1
39 10 11
39 11 1
39 12 6
39 13 4
39 14 12
39 15 6
39 16 8
39 17 1
39 18 2
39 19 2
39 20 10
39 21 11
39 22 6
39 23 3
39 24 11
39 25 5
39 26 1
39 27 7
39 28 5
39 29 1
39 30 3
39 31 1
39 32 2
39 33 11
39 34 2
39 35 9
39 36 3
39 37 2
39 38 11
40 0 3
40 1 7
40 2 8
40 3 8
40 4 6
40 5 8
40 6 11
40 7 8
40 8 10
40 9 12
40 10 3
40 11 8
40 12 6
40 13 7
40 14 12
40 15 5
40 16 3
40 17 1
40 18 10
40 19 6
40 20 9
40 21 11
40 22 12
40 23 3
40 24 8
40 25 1
40 26 10
40 27 1
40 28 9
40 29 6
40 30 10
40 31 10
40 32 12
40 33 6
40 34 6
40 35 4
40 36 4
40 37 11
40 38 10
40 39 8
41 0 6
41 1 7
41 2 12
41 3 12
41 4 1
41 5 3
41 6 11
41 7 8
41 8 2
41 9 2
41 10 11
41 11 9
41 12 11
41 13 1
41 14 7
41 15 1
41 16 5
41 17 7
41 18 1
41 19 11
41 20 7
41 21 12
41 22 8
41 23 9
41 24 2
41 25 2
41 26 9
41 27 8
41 28 4
41 29 6
41 30 10
41 31 1
41 32 3
41 33 4
41 34 2
41 35 1
41 36 1
41 37 9
41 38 8
41 39 2
41 40 5
